/* Objective function */
min: - 0.0054fpdi - 0.0054fpdo + 0.05apdi + 0.05apdo + 0.0002pi + 0.0002po - 0.5fsi - 0.5fso;

apdi = 0.0 hi + -0.0 li + 4.40873 ri + -0.0 ci + -0.83772 si + 0.0 ti + 0.02993 fTempIi + 0.08976 ami + -62.49771;
asi = 0.0 hi + -0.0 li + -0.0 ri + 0.0 ci + -0.0 si + -0.0 ti + 0.0 fTempIi + 0.00112 ami + -0.00571;
aTempOi = 0.0 hi + -0.0 li + 0.19411 ri + -0.10771 ci + -0.02913 si + -0.0 ti + 0.76713 fTempIi + -0.00693 ami + 7.06637;
fpdi = 0.0 hi + -0.0 li + 0.30635 ri + -2.33148 ci + -0.00067 si + 0.0 ti + -0.02537 fTempIi + 0.00012 ami + 9.73648;
fsi = 0.0 hi + -0.0 li + 0.0 ri + -0.05 ci + -0.0 si + 0.0 ti + -0.0 fTempIi + 0.0 ami + 0.38667;
fTempOi = 0.0 hi + 0.0 li + -0.20542 ri + 0.11495 ci + 0.03041 si + -0.0 ti + 0.20032 fTempIi + -0.00534 ami + 10.3554;
pi = 0.0 hi + -0.0 li + 42.33333 ri + 3.5 ci + -2.60159 si + 0.0 ti + 0.0 fTempIi + -0.0 ami + 153.19841;

apdo = 0.0 ho + -0.0 lo + 4.10119 ro + 11.65079 co + -0.76582 so + 0.0 to + 0.03673 fTempIo + 0.0829 amo + -75.67912;
aso = 0.0 ho + -0.0 lo + 0.0 ro + 0.14143 co + -0.0 so + 0.0 to + -0.0 fTempIo + 0.00105 amo + -0.21714;
aTempOo = 0.0 ho + -0.0 lo + -0.16856 ro + 0.71299 co + 0.03402 so + 0.0 to + 0.79631 fTempIo + 0.00747 amo + -2.52595;
fpdo = 0.0 ho + 0.0 lo + 6.08502 ro + -110.84339 co + 0.01236 so + -0.0 to + -0.4073 fTempIo + -0.0023 amo + 172.46351;
fso = 0.0 ho + 0.0 lo + 0.0 ro + -0.35 co + 0.0 so + -0.0 to + 0.0 fTempIo + 0.0 amo + 1.06;
fTempOo = 0.0 ho + 0.0 lo + 0.18026 ro + -0.77487 co + -0.03245 so + -0.0 to + 0.16678 fTempIo + 0.00621 amo + 14.7422;
po = 0.0 ho + 0.0 lo + 41.41667 ro + -15.66667 co + -2.11667 so + 0.0 to + 0.0 fTempIo + -0.0 amo + 165.91667;

/* Variable bounds */
aTempOi > 18.6;
1 =r6i + r8i + r10i + r12i + r14i;
ri =6r6i + 8r8i + 10r10i + 12r12i + 14r14i;
1 =s25i + s30i + s40i;
si =25s25i + 30s30i + 40s40i;
ti = 1;
apdi > 100;
apdi < 300;
asi > 0;
asi < 3;
aTempOi > 5;
aTempOi < 25;
fpdi > 100;
fpdi < 300;
fsi > 0;
fsi < 1.25;
fTempOi > 5;
fTempOi < 25;
pi > 0;
ri > 10;
ri < 14;
ci > 3;
ci < 60;
si > 25;
si < 60;
ti > 1;
ti < 3;
fTempIi > 5;
fTempIi < 25;

/* aTempOo < 11.4; */
1 =r6o + r8o + r10o + r12o + r14o;
ro =6r6o + 8r8o + 10r10o + 12r12o + 14r14o;
1 =s25o + s30o + s40o;
so =25s25o + 30s30o + 40s40o;
to = 2;
apdo > 100;
apdo < 300;
aso > 0;
aso < 3;
aTempOo > 5;
aTempOo < 25;
fpdo > 100;
fpdo < 300;
fso > 0;
fso < 1.25;
fTempOo > 5;
fTempOo < 25;
po > 0;
ro > 10;
ro < 14;
co > 1;
co < 3;
so > 25;
so < 60;
to > 1;
to < 3;
fTempIo > 5;
fTempIo < 25;
int hi,li,si,ti,ci,ri,ami;
int ho,lo,so,to,co,ro,amo;
bin s25i,s30i,s40i,s50i,s60i,r6i,r8i,r10i,r12i,r14i;
bin s25o,s30o,s40o,s50o,s60o,r6o,r8o,r10o,r12o,r14o;
